SYSTEM = Freq
ENCUT = 450
SIGMA = 0.05
EDIFF = 1E-06
PREC = Normal
ISMEAR = 0
NSW = 1
IBRION = 5
POTIM = 0.02
LCHARG = .FALSE
LREAL = .FALSE
LWAVE = .FALSE

NFREE = 2
IALGO = 38
